(set-logic QF_LIA)
(set-info :ran/ran2.smt2)
(set-info :smt-lib-version 2.0)
(declare-fun x1 () Int)
(declare-fun x2 () Int)
(declare-fun x3 () Int)
(declare-fun x4 () Int)
(assert (<= (+ (* 9 x1) (* 7 x2) (* 10 x3) (* (- 1) x4) ) 1224))
(assert (<= (+ (* (- 2) x1) (* 5 x2) (* (- 10) x3) (* 10 x4) ) (- 934)))
(assert (<= (+ (* 0 x1) (* (- 3) x2) (* (- 10) x3) (* 2 x4) ) (- 363)))
(assert (<= (+ (* 2 x1) (* 4 x2) (* (- 2) x3) (* (- 7) x4) ) (- 58)))
(assert (<= (+ (* 9 x1) (* 9 x2) (* 9 x3) (* 6 x4) ) 1510))
(assert (<= (+ (* 1 x1) (* 6 x2) (* (- 5) x3) (* 1 x4) ) (- 377)))
(assert (<= (+ (* (- 9) x1) (* (- 3) x2) (* 4 x3) (* 9 x4) ) 375))
(assert (<= (+ (* 1 x1) (* (- 4) x2) (* (- 1) x3) (* (- 1) x4) ) 160))
(assert (<= (+ (* 1 x1) (* 0 x2) (* 0 x3) (* 0 x4) ) 1995))
(assert (<= (+ (* (- 1) x1) (* 0 x2) (* 0 x3) (* 0 x4) ) 1995))
(assert (<= (+ (* 0 x1) (* 1 x2) (* 0 x3) (* 0 x4) ) 1995))
(assert (<= (+ (* 0 x1) (* (- 1) x2) (* 0 x3) (* 0 x4) ) 1995))
(assert (<= (+ (* 0 x1) (* 0 x2) (* 1 x3) (* 0 x4) ) 1995))
(assert (<= (+ (* 0 x1) (* 0 x2) (* (- 1) x3) (* 0 x4) ) 1995))
(assert (<= (+ (* 0 x1) (* 0 x2) (* 0 x3) (* 1 x4) ) 1995))
(assert (<= (+ (* 0 x1) (* 0 x2) (* 0 x3) (* (- 1) x4) ) 1995))
